* ENCODING=ISO-8859-1
NAME          CPLEX
ROWS
 N  obj1    
 G  c1      
 G  c2      
 G  c3      
 G  c4      
 G  c5      
 G  c6      
 G  c7      
 G  c8      
 G  c9      
 G  c10     
 G  c11     
 G  c12     
 G  c13     
 G  c14     
 G  c15     
 G  c16     
 G  c17     
 G  c18     
 G  c19     
 G  c20     
 G  c21     
 G  c22     
 G  c23     
 G  c24     
 G  c25     
 G  c26     
 G  c27     
 G  c28     
 G  c29     
 G  c30     
 G  c31     
 G  c32     
 G  c33     
 G  c34     
 G  c35     
 G  c36     
 G  c37     
 G  c38     
 G  c39     
 G  c40     
COLUMNS
    MARK0000  'MARKER'                 'INTORG'
    x1        obj1                            1
    x1        c5                            988
    x1        c21                           266
    x1        c24                           964
    x1        c26                           317
    x1        c28                           238
    x1        c29                           693
    x1        c34                           313
    x1        c38                           230
    x1        c39                           151
    x2        obj1                            1
    x2        c14                           305
    x2        c15                           343
    x2        c33                           708
    x2        c34                           620
    x2        c36                           802
    x2        c40                           817
    x3        obj1                            1
    x3        c9                            631
    x3        c14                           220
    x3        c29                           307
    x4        obj1                            1
    x4        c3                            357
    x4        c10                           457
    x4        c40                           601
    x5        obj1                            1
    x5        c7                            479
    x5        c13                           178
    x6        obj1                            1
    x6        c1                            600
    x6        c37                           560
    x7        obj1                            1
    x7        c1                            103
    x7        c9                            423
    x7        c10                           195
    x7        c34                           445
    x7        c38                           332
    x8        obj1                            1
    x8        c11                           101
    x9        obj1                            1
    x9        c3                            380
    x9        c10                           755
    x9        c20                           144
    x9        c26                           874
    x9        c27                           153
    x10       obj1                            1
    x10       c1                            419
    x10       c8                            906
    x10       c18                           981
    x10       c32                           357
    x10       c34                           159
    x11       obj1                            1
    x11       c7                            775
    x11       c10                           941
    x11       c18                           828
    x11       c24                           620
    x12       obj1                            1
    x12       c14                           858
    x12       c26                           632
    x12       c34                           934
    x13       obj1                            1
    x13       c7                            788
    x13       c23                           383
    x13       c25                           917
    x13       c40                           890
    x14       obj1                            1
    x14       c19                           298
    x14       c32                           253
    x14       c40                           613
    x15       obj1                            1
    x15       c1                            995
    x15       c12                           497
    x15       c38                           394
    x16       obj1                            1
    x16       c5                            737
    x16       c33                           222
    x17       obj1                            1
    x17       c1                            197
    x17       c9                            485
    x17       c19                           561
    x17       c31                           874
    x18       obj1                            1
    x18       c8                            219
    x18       c16                           402
    x18       c20                           847
    x18       c25                           869
    x18       c31                           742
    x18       c40                           490
    x19       obj1                            1
    x19       c4                            888
    x19       c21                           818
    x20       obj1                            1
    x20       c11                           929
    x20       c38                           439
    x21       obj1                            1
    x21       c1                            919
    x21       c4                            831
    x21       c15                           471
    x21       c39                           112
    x22       obj1                            1
    x22       c15                           947
    x22       c26                           760
    x22       c31                           998
    x22       c34                           283
    x23       obj1                            1
    x23       c4                            705
    x23       c5                            859
    x23       c6                            397
    x23       c7                            890
    x23       c15                           578
    x23       c18                           340
    x23       c35                           518
    x24       obj1                            1
    x24       c2                            349
    x24       c6                            886
    x24       c9                            541
    x24       c18                           282
    x25       obj1                            1
    x25       c12                           125
    x25       c22                           676
    x25       c23                           318
    x25       c25                           190
    x25       c36                           207
    x26       obj1                            1
    x26       c3                            998
    x26       c33                           615
    x27       obj1                            1
    x27       c5                            299
    x28       obj1                            1
    x28       c2                            647
    x28       c21                           312
    x28       c22                           229
    x28       c33                           547
    x29       obj1                            1
    x29       c23                           399
    x29       c24                           431
    x29       c31                           729
    x30       obj1                            1
    x30       c5                            826
    x30       c7                            958
    x30       c11                           481
    x30       c25                           604
    x30       c31                           549
    x31       obj1                            1
    x31       c20                           572
    x31       c30                           993
    x32       obj1                            1
    x32       c13                           217
    x32       c28                           238
    x32       c40                           838
    x33       obj1                            1
    x33       c5                            421
    x33       c13                           239
    x33       c24                           411
    x33       c25                           672
    x33       c33                           483
    x34       obj1                            1
    x34       c15                           469
    x34       c18                           792
    x34       c26                           219
    x34       c36                           947
    x35       obj1                            1
    x35       c8                            878
    x35       c25                           258
    x35       c30                           661
    x35       c31                           315
    x36       obj1                            1
    x36       c10                           512
    x36       c37                           672
    x36       c39                           859
    x37       obj1                            1
    x37       c14                           928
    x37       c34                           900
    x38       obj1                            1
    x38       c1                            542
    x38       c4                            853
    x38       c7                            146
    x38       c9                            577
    x38       c13                           878
    x38       c25                           221
    x38       c36                           681
    x39       obj1                            1
    x39       c12                           912
    x39       c26                           907
    x39       c27                           533
    x39       c34                           959
    x39       c40                           557
    x40       obj1                            1
    x40       c2                            696
    x40       c10                           618
    x40       c11                           588
    x40       c17                           480
    x40       c29                           516
    x40       c34                           622
    x41       obj1                            1
    x41       c11                           923
    x41       c15                           415
    x41       c26                           752
    x41       c32                           142
    x42       obj1                            1
    x42       c10                           265
    x42       c12                           516
    x42       c13                           122
    x42       c18                           288
    x43       obj1                            1
    x43       c18                           394
    x43       c26                           242
    x43       c30                           142
    x44       obj1                            1
    x44       c16                           618
    x44       c35                           884
    x45       obj1                            1
    x45       c12                           108
    x45       c19                           790
    x45       c21                           571
    x45       c37                           547
    x46       obj1                            1
    x46       c7                            990
    x46       c9                            758
    x46       c10                           896
    x46       c26                           376
    x46       c33                           289
    x46       c40                           857
    x47       obj1                            1
    x47       c1                            615
    x48       obj1                            1
    x48       c23                           974
    x49       obj1                            1
    x49       c6                            659
    x49       c27                           652
    x50       obj1                            1
    x50       c1                            454
    x50       c2                            263
    x50       c35                           648
    x51       obj1                            1
    x51       c34                           934
    x51       c38                           426
    x52       obj1                            1
    x53       obj1                            1
    x53       c11                           183
    x53       c28                           209
    x53       c33                           531
    x53       c39                           983
    x54       obj1                            1
    x54       c5                            149
    x54       c24                           678
    x55       obj1                            1
    x55       c6                            228
    x55       c17                           955
    x55       c35                           603
    x55       c36                           937
    x55       c37                           121
    x56       obj1                            1
    x56       c3                            711
    x56       c8                            984
    x56       c13                           688
    x56       c15                           965
    x56       c28                           790
    x56       c35                           582
    x57       obj1                            1
    x57       c1                            494
    x57       c27                           823
    x57       c30                           582
    x57       c34                           441
    x57       c35                           359
    x58       obj1                            1
    x58       c11                           483
    x58       c19                           499
    x58       c26                           305
    x58       c31                           564
    x58       c32                           929
    x58       c33                           943
    x59       obj1                            1
    x59       c2                            700
    x59       c5                            869
    x59       c8                            107
    x60       obj1                            1
    x60       c26                           945
    x60       c31                           350
    x61       obj1                            1
    x61       c5                            294
    x61       c12                           611
    x61       c15                           376
    x61       c18                           245
    x61       c23                           346
    x61       c31                           653
    x61       c38                           295
    x62       obj1                            1
    x62       c12                           133
    x62       c24                           815
    x63       obj1                            1
    x63       c10                           819
    x63       c11                           166
    x63       c16                           378
    x63       c18                           643
    x63       c19                           626
    x63       c30                           234
    x63       c33                           116
    x63       c36                           402
    x63       c37                           367
    x64       obj1                            1
    x64       c12                           849
    x64       c22                           902
    x65       obj1                            1
    x65       c9                            672
    x65       c31                           292
    x65       c36                           806
    x66       obj1                            1
    x66       c4                            209
    x66       c15                           650
    x66       c23                           716
    x66       c25                           850
    x67       obj1                            1
    x67       c2                            452
    x67       c15                           918
    x67       c21                           812
    x67       c35                           105
    x68       obj1                            1
    x68       c8                            412
    x68       c9                            124
    x68       c34                           284
    x68       c37                           647
    x69       obj1                            1
    x69       c2                            836
    x69       c12                           687
    x69       c20                           123
    x69       c22                           706
    x69       c24                           163
    x69       c28                           768
    x69       c32                           150
    x70       obj1                            1
    x70       c9                            650
    x70       c18                           394
    x70       c28                           630
    x70       c33                           243
    x71       obj1                            1
    x71       c4                            927
    x71       c13                           368
    x71       c17                           675
    x71       c19                           603
    x71       c29                           714
    x72       obj1                            1
    x72       c7                            708
    x72       c38                           366
    x73       obj1                            1
    x73       c7                            409
    x73       c29                           727
    x74       obj1                            1
    x74       c22                           237
    x74       c33                           582
    x75       obj1                            1
    x75       c13                           536
    x75       c28                           625
    x75       c38                           431
    x76       obj1                            1
    x76       c2                            404
    x76       c17                           456
    x76       c38                           993
    x77       obj1                            1
    x77       c1                            216
    x77       c7                            723
    x77       c13                           824
    x77       c17                           533
    x77       c27                           555
    x77       c33                           875
    x78       obj1                            1
    x78       c9                            206
    x78       c35                           376
    x79       obj1                            1
    x79       c1                            476
    x79       c10                           288
    x79       c16                           382
    x79       c18                           795
    x79       c31                           867
    x80       obj1                            1
    x80       c15                           329
    x80       c18                           821
    MARK0001  'MARKER'                 'INTEND'
RHS
    rhs       c1                           3015
    rhs       c2                           2174
    rhs       c3                           1223
    rhs       c4                           2207
    rhs       c5                           2721
    rhs       c6                           1085
    rhs       c7                           3433
    rhs       c8                           1753
    rhs       c9                           2534
    rhs       c10                          2873
    rhs       c11                          1927
    rhs       c12                          2219
    rhs       c13                          2025
    rhs       c14                          1156
    rhs       c15                          3231
    rhs       c16                           890
    rhs       c17                          1550
    rhs       c18                          3402
    rhs       c19                          1689
    rhs       c20                           843
    rhs       c21                          1390
    rhs       c22                          1375
    rhs       c23                          1568
    rhs       c24                          2041
    rhs       c25                          2291
    rhs       c26                          3165
    rhs       c27                          1358
    rhs       c28                          1749
    rhs       c29                          1479
    rhs       c30                          1306
    rhs       c31                          3467
    rhs       c32                           916
    rhs       c33                          3077
    rhs       c34                          3447
    rhs       c35                          2038
    rhs       c36                          2391
    rhs       c37                          1457
    rhs       c38                          1953
    rhs       c39                          1053
    rhs       c40                          2832
BOUNDS
 LI bnd       x1        0
 LI bnd       x2        0
 LI bnd       x3        0
 LI bnd       x4        0
 LI bnd       x5        0
 LI bnd       x6        0
 LI bnd       x7        0
 LI bnd       x8        0
 LI bnd       x9        0
 LI bnd       x10       0
 LI bnd       x11       0
 LI bnd       x12       0
 LI bnd       x13       0
 LI bnd       x14       0
 LI bnd       x15       0
 LI bnd       x16       0
 LI bnd       x17       0
 LI bnd       x18       0
 LI bnd       x19       0
 LI bnd       x20       0
 LI bnd       x21       0
 LI bnd       x22       0
 LI bnd       x23       0
 LI bnd       x24       0
 LI bnd       x25       0
 LI bnd       x26       0
 LI bnd       x27       0
 LI bnd       x28       0
 LI bnd       x29       0
 LI bnd       x30       0
 LI bnd       x31       0
 LI bnd       x32       0
 LI bnd       x33       0
 LI bnd       x34       0
 LI bnd       x35       0
 LI bnd       x36       0
 LI bnd       x37       0
 LI bnd       x38       0
 LI bnd       x39       0
 LI bnd       x40       0
 LI bnd       x41       0
 LI bnd       x42       0
 LI bnd       x43       0
 LI bnd       x44       0
 LI bnd       x45       0
 LI bnd       x46       0
 LI bnd       x47       0
 LI bnd       x48       0
 LI bnd       x49       0
 LI bnd       x50       0
 LI bnd       x51       0
 LI bnd       x52       0
 LI bnd       x53       0
 LI bnd       x54       0
 LI bnd       x55       0
 LI bnd       x56       0
 LI bnd       x57       0
 LI bnd       x58       0
 LI bnd       x59       0
 LI bnd       x60       0
 LI bnd       x61       0
 LI bnd       x62       0
 LI bnd       x63       0
 LI bnd       x64       0
 LI bnd       x65       0
 LI bnd       x66       0
 LI bnd       x67       0
 LI bnd       x68       0
 LI bnd       x69       0
 LI bnd       x70       0
 LI bnd       x71       0
 LI bnd       x72       0
 LI bnd       x73       0
 LI bnd       x74       0
 LI bnd       x75       0
 LI bnd       x76       0
 LI bnd       x77       0
 LI bnd       x78       0
 LI bnd       x79       0
 LI bnd       x80       0
ENDATA
